NAME : brg180.2190.tour
COMMENT : Cost = 290_2190
COMMENT : Found by LKH [Keld Helsgaun] Thu Nov 16 17:30:49 2017
TYPE : TOUR
DIMENSION : 189
TOUR_SECTION
1
12
189
40
41
42
43
44
45
46
47
48
37
38
39
109
120
119
118
117
116
115
114
113
112
111
110
187
15
14
13
24
23
22
21
20
19
18
17
16
188
173
172
171
170
169
180
179
178
177
176
175
174
80
81
82
83
84
73
74
75
76
77
78
79
182
167
166
165
164
163
162
161
160
159
158
157
168
71
70
69
68
67
66
65
64
63
62
61
72
183
138
139
140
141
142
143
144
133
134
135
136
137
152
153
154
155
156
145
146
147
148
149
150
151
186
129
128
127
126
125
124
123
122
121
132
131
130
53
52
51
50
49
60
59
58
57
56
55
54
181
2
3
4
5
6
7
8
9
10
11
85
96
95
94
93
92
91
90
89
88
87
86
184
99
98
97
108
107
106
105
104
103
102
101
100
185
31
30
29
28
27
26
25
36
35
34
33
32
-1
EOF
